c Standarized MaxSat Instance
c{
c "sha1sum": "1f2f07391f2fe455a2d71a37fcf8c3f7e92828a8",
c "nvars": 43,
c "ncls": 736,
c "nhards": 0,
c "nhard_len_stats":
c    { "min": 0, "max": 0, "ave": 0.00,
c      "stddev": 0.00 },
c "nsofts": 736,
c "nsoft_len_stats":
c    { "min": 2, "max": 2, "ave": 2.00,
c      "stddev": 0.00 },
c "nsoft_wts": 10,
c "soft_wt_stats":
c    { "min": 1, "max": 10, "ave": 5.68,
c      "stddev": 2.86 }
c}
c------------------------------------------------------------
c File  p_hat300-2.clq
c
c Source: P. Soriano and M. Gendreau at  patrick@crt.umontreal.ca
c
c Reference: p-hat graphs are generated with the p-hat generator
c 	      which is a generalisation of the classical uniform
c 	      random graph generator.
c 	      Graphs generated with p-hat have wider node degree spread
c 	      and larger cliques than uniform graphs.
c
c NOTE: September 23, 1993 Corrected corrupted file at DIMACS.
c
c
c Generation parameters: 
c 	n =    300 a =  0.00  b =  1.00  Expected density =  0.50
c	Seed =       8713       Real density =  0.489
c
p wcnf 43 736 4179
9 1 5 0
9 -1 -5 0
4 1 7 0
4 -1 -7 0
8 1 9 0
8 -1 -9 0
8 1 13 0
8 -1 -13 0
10 1 22 0
10 -1 -22 0
2 1 26 0
2 -1 -26 0
4 1 28 0
4 -1 -28 0
8 1 29 0
8 -1 -29 0
3 1 31 0
3 -1 -31 0
6 1 34 0
6 -1 -34 0
5 1 35 0
5 -1 -35 0
7 2 6 0
7 -2 -6 0
4 2 7 0
4 -2 -7 0
6 2 33 0
6 -2 -33 0
10 2 40 0
10 -2 -40 0
10 2 41 0
10 -2 -41 0
7 3 6 0
7 -3 -6 0
8 3 10 0
8 -3 -10 0
2 3 25 0
2 -3 -25 0
7 3 26 0
7 -3 -26 0
1 3 28 0
1 -3 -28 0
3 3 29 0
3 -3 -29 0
2 3 32 0
2 -3 -32 0
9 3 35 0
9 -3 -35 0
2 3 36 0
2 -3 -36 0
5 3 41 0
5 -3 -41 0
2 4 7 0
2 -4 -7 0
2 4 9 0
2 -4 -9 0
10 4 12 0
10 -4 -12 0
3 4 15 0
3 -4 -15 0
6 4 16 0
6 -4 -16 0
9 4 19 0
9 -4 -19 0
7 4 21 0
7 -4 -21 0
3 4 25 0
3 -4 -25 0
7 4 26 0
7 -4 -26 0
6 4 27 0
6 -4 -27 0
5 4 28 0
5 -4 -28 0
10 4 33 0
10 -4 -33 0
3 4 35 0
3 -4 -35 0
8 4 39 0
8 -4 -39 0
6 4 41 0
6 -4 -41 0
8 5 6 0
8 -5 -6 0
5 5 7 0
5 -5 -7 0
9 5 8 0
9 -5 -8 0
3 5 9 0
3 -5 -9 0
4 5 11 0
4 -5 -11 0
9 5 14 0
9 -5 -14 0
10 5 16 0
10 -5 -16 0
1 5 18 0
1 -5 -18 0
10 5 19 0
10 -5 -19 0
6 5 21 0
6 -5 -21 0
1 5 24 0
1 -5 -24 0
2 5 25 0
2 -5 -25 0
7 5 26 0
7 -5 -26 0
9 5 29 0
9 -5 -29 0
4 5 30 0
4 -5 -30 0
1 5 32 0
1 -5 -32 0
1 5 33 0
1 -5 -33 0
5 5 35 0
5 -5 -35 0
1 5 36 0
1 -5 -36 0
3 5 39 0
3 -5 -39 0
10 6 7 0
10 -6 -7 0
10 6 12 0
10 -6 -12 0
9 6 15 0
9 -6 -15 0
3 6 20 0
3 -6 -20 0
6 6 22 0
6 -6 -22 0
4 6 24 0
4 -6 -24 0
8 6 26 0
8 -6 -26 0
6 6 27 0
6 -6 -27 0
7 6 29 0
7 -6 -29 0
6 6 31 0
6 -6 -31 0
1 6 32 0
1 -6 -32 0
5 6 34 0
5 -6 -34 0
10 6 36 0
10 -6 -36 0
10 6 39 0
10 -6 -39 0
8 6 40 0
8 -6 -40 0
3 6 41 0
3 -6 -41 0
8 6 42 0
8 -6 -42 0
7 7 9 0
7 -7 -9 0
4 7 10 0
4 -7 -10 0
7 7 12 0
7 -7 -12 0
2 7 13 0
2 -7 -13 0
5 7 18 0
5 -7 -18 0
9 7 19 0
9 -7 -19 0
9 7 22 0
9 -7 -22 0
4 7 23 0
4 -7 -23 0
3 7 24 0
3 -7 -24 0
9 7 25 0
9 -7 -25 0
4 7 26 0
4 -7 -26 0
7 7 27 0
7 -7 -27 0
10 7 28 0
10 -7 -28 0
6 7 30 0
6 -7 -30 0
7 7 32 0
7 -7 -32 0
9 7 33 0
9 -7 -33 0
5 7 34 0
5 -7 -34 0
10 7 35 0
10 -7 -35 0
4 7 36 0
4 -7 -36 0
9 7 38 0
9 -7 -38 0
7 7 40 0
7 -7 -40 0
10 7 42 0
10 -7 -42 0
5 7 43 0
5 -7 -43 0
3 8 14 0
3 -8 -14 0
10 8 16 0
10 -8 -16 0
10 8 19 0
10 -8 -19 0
2 8 28 0
2 -8 -28 0
9 8 30 0
9 -8 -30 0
7 8 32 0
7 -8 -32 0
5 8 39 0
5 -8 -39 0
7 8 40 0
7 -8 -40 0
3 8 41 0
3 -8 -41 0
8 9 11 0
8 -9 -11 0
4 9 12 0
4 -9 -12 0
5 9 13 0
5 -9 -13 0
3 9 15 0
3 -9 -15 0
2 9 18 0
2 -9 -18 0
3 9 19 0
3 -9 -19 0
6 9 21 0
6 -9 -21 0
5 9 24 0
5 -9 -24 0
2 9 25 0
2 -9 -25 0
10 9 26 0
10 -9 -26 0
2 9 28 0
2 -9 -28 0
2 9 29 0
2 -9 -29 0
5 9 30 0
5 -9 -30 0
8 9 33 0
8 -9 -33 0
10 9 37 0
10 -9 -37 0
10 9 38 0
10 -9 -38 0
7 9 39 0
7 -9 -39 0
4 9 41 0
4 -9 -41 0
8 10 15 0
8 -10 -15 0
4 10 26 0
4 -10 -26 0
3 10 33 0
3 -10 -33 0
3 10 35 0
3 -10 -35 0
6 10 36 0
6 -10 -36 0
3 10 39 0
3 -10 -39 0
2 10 40 0
2 -10 -40 0
8 10 41 0
8 -10 -41 0
2 11 14 0
2 -11 -14 0
8 11 16 0
8 -11 -16 0
2 11 18 0
2 -11 -18 0
8 11 26 0
8 -11 -26 0
1 11 27 0
1 -11 -27 0
10 11 28 0
10 -11 -28 0
1 11 32 0
1 -11 -32 0
6 11 36 0
6 -11 -36 0
2 11 38 0
2 -11 -38 0
3 11 39 0
3 -11 -39 0
8 11 40 0
8 -11 -40 0
8 11 41 0
8 -11 -41 0
7 11 42 0
7 -11 -42 0
10 12 16 0
10 -12 -16 0
7 12 17 0
7 -12 -17 0
8 12 18 0
8 -12 -18 0
1 12 19 0
1 -12 -19 0
2 12 24 0
2 -12 -24 0
6 12 28 0
6 -12 -28 0
1 12 29 0
1 -12 -29 0
1 12 31 0
1 -12 -31 0
3 12 32 0
3 -12 -32 0
5 12 35 0
5 -12 -35 0
9 12 36 0
9 -12 -36 0
6 12 38 0
6 -12 -38 0
8 12 40 0
8 -12 -40 0
1 12 41 0
1 -12 -41 0
2 13 14 0
2 -13 -14 0
10 13 20 0
10 -13 -20 0
3 13 26 0
3 -13 -26 0
9 13 28 0
9 -13 -28 0
2 13 29 0
2 -13 -29 0
10 13 33 0
10 -13 -33 0
1 13 34 0
1 -13 -34 0
9 13 37 0
9 -13 -37 0
1 13 39 0
1 -13 -39 0
1 13 40 0
1 -13 -40 0
10 13 42 0
10 -13 -42 0
6 14 15 0
6 -14 -15 0
2 14 17 0
2 -14 -17 0
2 14 21 0
2 -14 -21 0
4 14 22 0
4 -14 -22 0
10 14 26 0
10 -14 -26 0
9 14 28 0
9 -14 -28 0
4 14 34 0
4 -14 -34 0
6 14 36 0
6 -14 -36 0
6 14 38 0
6 -14 -38 0
5 14 40 0
5 -14 -40 0
7 14 42 0
7 -14 -42 0
1 15 18 0
1 -15 -18 0
6 15 24 0
6 -15 -24 0
8 15 29 0
8 -15 -29 0
4 15 30 0
4 -15 -30 0
10 15 32 0
10 -15 -32 0
6 15 33 0
6 -15 -33 0
9 15 35 0
9 -15 -35 0
8 15 38 0
8 -15 -38 0
7 15 39 0
7 -15 -39 0
1 15 41 0
1 -15 -41 0
8 15 42 0
8 -15 -42 0
9 16 18 0
9 -16 -18 0
10 16 30 0
10 -16 -30 0
9 16 31 0
9 -16 -31 0
9 16 34 0
9 -16 -34 0
10 16 35 0
10 -16 -35 0
8 16 36 0
8 -16 -36 0
10 16 38 0
10 -16 -38 0
10 16 39 0
10 -16 -39 0
7 16 40 0
7 -16 -40 0
5 16 41 0
5 -16 -41 0
2 16 43 0
2 -16 -43 0
9 17 28 0
9 -17 -28 0
9 17 31 0
9 -17 -31 0
1 17 34 0
1 -17 -34 0
7 17 35 0
7 -17 -35 0
3 17 37 0
3 -17 -37 0
7 17 38 0
7 -17 -38 0
3 17 40 0
3 -17 -40 0
8 18 19 0
8 -18 -19 0
4 18 22 0
4 -18 -22 0
4 18 23 0
4 -18 -23 0
3 18 25 0
3 -18 -25 0
1 18 26 0
1 -18 -26 0
7 18 29 0
7 -18 -29 0
3 18 30 0
3 -18 -30 0
7 18 34 0
7 -18 -34 0
6 18 35 0
6 -18 -35 0
10 18 36 0
10 -18 -36 0
3 18 40 0
3 -18 -40 0
6 18 41 0
6 -18 -41 0
8 18 42 0
8 -18 -42 0
2 19 24 0
2 -19 -24 0
5 19 26 0
5 -19 -26 0
6 19 33 0
6 -19 -33 0
10 19 34 0
10 -19 -34 0
5 19 35 0
5 -19 -35 0
4 19 36 0
4 -19 -36 0
9 19 37 0
9 -19 -37 0
5 19 41 0
5 -19 -41 0
1 20 24 0
1 -20 -24 0
4 20 29 0
4 -20 -29 0
6 20 31 0
6 -20 -31 0
9 20 32 0
9 -20 -32 0
3 20 38 0
3 -20 -38 0
7 20 39 0
7 -20 -39 0
5 20 41 0
5 -20 -41 0
5 21 23 0
5 -21 -23 0
4 21 26 0
4 -21 -26 0
8 21 29 0
8 -21 -29 0
2 21 31 0
2 -21 -31 0
7 21 32 0
7 -21 -32 0
1 21 33 0
1 -21 -33 0
5 21 38 0
5 -21 -38 0
7 21 40 0
7 -21 -40 0
7 21 42 0
7 -21 -42 0
7 22 26 0
7 -22 -26 0
4 22 30 0
4 -22 -30 0
2 22 33 0
2 -22 -33 0
7 22 35 0
7 -22 -35 0
7 22 36 0
7 -22 -36 0
8 23 28 0
8 -23 -28 0
4 23 30 0
4 -23 -30 0
8 23 34 0
8 -23 -34 0
3 23 35 0
3 -23 -35 0
10 23 40 0
10 -23 -40 0
7 24 25 0
7 -24 -25 0
7 24 29 0
7 -24 -29 0
3 24 30 0
3 -24 -30 0
6 24 32 0
6 -24 -32 0
1 24 34 0
1 -24 -34 0
3 24 37 0
3 -24 -37 0
9 24 38 0
9 -24 -38 0
7 24 40 0
7 -24 -40 0
1 24 41 0
1 -24 -41 0
2 25 26 0
2 -25 -26 0
4 25 27 0
4 -25 -27 0
6 25 31 0
6 -25 -31 0
6 25 32 0
6 -25 -32 0
7 25 34 0
7 -25 -34 0
3 25 37 0
3 -25 -37 0
8 25 40 0
8 -25 -40 0
3 25 41 0
3 -25 -41 0
4 26 27 0
4 -26 -27 0
2 26 28 0
2 -26 -28 0
10 26 29 0
10 -26 -29 0
1 26 30 0
1 -26 -30 0
9 26 31 0
9 -26 -31 0
4 26 33 0
4 -26 -33 0
2 26 34 0
2 -26 -34 0
5 26 35 0
5 -26 -35 0
10 26 36 0
10 -26 -36 0
10 26 38 0
10 -26 -38 0
8 26 39 0
8 -26 -39 0
7 26 40 0
7 -26 -40 0
2 27 32 0
2 -27 -32 0
7 27 35 0
7 -27 -35 0
4 27 36 0
4 -27 -36 0
8 27 39 0
8 -27 -39 0
10 27 41 0
10 -27 -41 0
10 28 29 0
10 -28 -29 0
9 28 30 0
9 -28 -30 0
3 28 31 0
3 -28 -31 0
8 28 32 0
8 -28 -32 0
6 28 33 0
6 -28 -33 0
3 28 35 0
3 -28 -35 0
10 28 36 0
10 -28 -36 0
10 28 38 0
10 -28 -38 0
9 28 39 0
9 -28 -39 0
5 28 40 0
5 -28 -40 0
6 28 41 0
6 -28 -41 0
2 28 42 0
2 -28 -42 0
3 28 43 0
3 -28 -43 0
9 29 30 0
9 -29 -30 0
5 29 31 0
5 -29 -31 0
5 29 32 0
5 -29 -32 0
9 29 33 0
9 -29 -33 0
5 29 35 0
5 -29 -35 0
3 29 36 0
3 -29 -36 0
2 29 40 0
2 -29 -40 0
7 29 41 0
7 -29 -41 0
8 29 42 0
8 -29 -42 0
2 29 43 0
2 -29 -43 0
7 30 31 0
7 -30 -31 0
5 30 32 0
5 -30 -32 0
9 30 33 0
9 -30 -33 0
8 30 35 0
8 -30 -35 0
2 30 37 0
2 -30 -37 0
3 30 40 0
3 -30 -40 0
5 30 41 0
5 -30 -41 0
2 31 32 0
2 -31 -32 0
2 31 33 0
2 -31 -33 0
4 31 34 0
4 -31 -34 0
4 31 35 0
4 -31 -35 0
10 31 36 0
10 -31 -36 0
10 31 39 0
10 -31 -39 0
7 31 40 0
7 -31 -40 0
9 31 41 0
9 -31 -41 0
9 32 34 0
9 -32 -34 0
5 32 35 0
5 -32 -35 0
4 32 36 0
4 -32 -36 0
4 32 38 0
4 -32 -38 0
7 32 39 0
7 -32 -39 0
7 32 40 0
7 -32 -40 0
3 32 41 0
3 -32 -41 0
2 32 42 0
2 -32 -42 0
1 32 43 0
1 -32 -43 0
2 33 34 0
2 -33 -34 0
7 33 36 0
7 -33 -36 0
4 33 40 0
4 -33 -40 0
3 34 38 0
3 -34 -38 0
4 34 40 0
4 -34 -40 0
1 34 41 0
1 -34 -41 0
5 34 43 0
5 -34 -43 0
10 35 36 0
10 -35 -36 0
6 35 37 0
6 -35 -37 0
3 35 40 0
3 -35 -40 0
7 35 41 0
7 -35 -41 0
8 35 42 0
8 -35 -42 0
5 35 43 0
5 -35 -43 0
2 36 37 0
2 -36 -37 0
9 36 40 0
9 -36 -40 0
7 37 38 0
7 -37 -38 0
6 37 39 0
6 -37 -39 0
3 37 40 0
3 -37 -40 0
6 38 40 0
6 -38 -40 0
5 38 41 0
5 -38 -41 0
9 39 41 0
9 -39 -41 0
4 39 42 0
4 -39 -42 0
3 40 41 0
3 -40 -41 0
4 40 42 0
4 -40 -42 0
8 41 43 0
8 -41 -43 0
7 42 43 0
7 -42 -43 0
